50, 579
44, 44
4, 4
48, 48
12, 12
32, 32
2, 2
18, 18
26, 26
18, 18
18, 18
8, 8
14, 14
40, 40
34, 34
6, 6
4, 4
26, 26
16, 16
10, 10
12, 12
18, 18
30, 30
8, 8
42, 42
4, 4
36, 36
46, 46
44, 44
42, 42
20, 20
2, 2
8, 8
32, 32
18, 18
36, 36
4, 4
4, 4
34, 34
24, 24
32, 32
38, 38
12, 12
36, 36
8, 8
40, 40
48, 48
20, 20
36, 36
36, 36
6, 6
